CLT02
Position Depot: Random
Horizon for Depot: Large
Position of customers: Cluster
Distribution of the demand: Small
Width of time windows: Tight
Distribution of the service: Small

VEHICLE 
NUMBER 	 CAPACITY 
 5 	 	 145 
 
CUSTOMER
CUST NO. 	 XCOORD.  	 YCOORD. 	 DEMAND 	 READY TIME 	 DUE DATE 	 SERVICE TIME 
 0 	 	 265 	 	 142 	 	 0 	 	 0 	 	 2635 	 	 0 
  1 	 	 128 	 	 536 	 	 8 	 	 268 	 	 458 	 	 62 
  2 	 	 410 	 	 749 	 	 8 	 	 566 	 	 686 	 	 98 
  3 	 	 182 	 	 23 	 	 8 	 	 1721 	 	 1889 	 	 100 
  4 	 	 170 	 	 968 	 	 8 	 	 821 	 	 914 	 	 80 
  5 	 	 456 	 	 728 	 	 9 	 	 836 	 	 949 	 	 77 
  6 	 	 131 	 	 38 	 	 7 	 	 1141 	 	 1236 	 	 93 
  7 	 	 417 	 	 860 	 	 9 	 	 2052 	 	 2244 	 	 53 
  8 	 	 371 	 	 643 	 	 7 	 	 499 	 	 563 	 	 50 
  9 	 	 114 	 	 459 	 	 8 	 	 550 	 	 646 	 	 61 
  10 	 	 197 	 	 948 	 	 8 	 	 2032 	 	 2130 	 	 66 
  11 	 	 271 	 	 39 	 	 8 	 	 1444 	 	 1548 	 	 79 
  12 	 	 96 	 	 540 	 	 6 	 	 2341 	 	 2517 	 	 89 
  13 	 	 122 	 	 39 	 	 5 	 	 872 	 	 1049 	 	 88 
  14 	 	 189 	 	 398 	 	 8 	 	 1152 	 	 1256 	 	 82 
  15 	 	 179 	 	 542 	 	 5 	 	 1212 	 	 1331 	 	 61 
  16 	 	 167 	 	 973 	 	 7 	 	 2323 	 	 2468 	 	 68 
  17 	 	 722 	 	 558 	 	 7 	 	 860 	 	 937 	 	 93 
  18 	 	 172 	 	 971 	 	 8 	 	 1802 	 	 1977 	 	 56 
  19 	 	 392 	 	 767 	 	 6 	 	 1106 	 	 1277 	 	 81 
  20 	 	 177 	 	 32 	 	 5 	 	 2218 	 	 2288 	 	 64 
  21 	 	 390 	 	 646 	 	 5 	 	 417 	 	 571 	 	 98 
  22 	 	 528 	 	 780 	 	 5 	 	 1394 	 	 1548 	 	 77 
  23 	 	 556 	 	 764 	 	 7 	 	 1231 	 	 1301 	 	 84 
  24 	 	 238 	 	 55 	 	 9 	 	 636 	 	 813 	 	 77 
  25 	 	 492 	 	 677 	 	 8 	 	 2404 	 	 2485 	 	 61 
  26 	 	 462 	 	 778 	 	 5 	 	 576 	 	 732 	 	 75 
  27 	 	 114 	 	 989 	 	 10 	 	 942 	 	 1067 	 	 71 
  28 	 	 158 	 	 541 	 	 9 	 	 2127 	 	 2267 	 	 63 
  29 	 	 164 	 	 467 	 	 7 	 	 1606 	 	 1658 	 	 87 
  30 	 	 466 	 	 720 	 	 8 	 	 562 	 	 673 	 	 50 
  31 	 	 85 	 	 536 	 	 7 	 	 2559 	 	 2635 	 	 74 
  32 	 	 265 	 	 504 	 	 8 	 	 1814 	 	 1964 	 	 65 
  33 	 	 330 	 	 761 	 	 10 	 	 722 	 	 863 	 	 80 
  34 	 	 372 	 	 752 	 	 10 	 	 2447 	 	 2635 	 	 57 
  35 	 	 492 	 	 631 	 	 7 	 	 1974 	 	 2067 	 	 83 
  36 	 	 194 	 	 951 	 	 8 	 	 713 	 	 893 	 	 91 
  37 	 	 377 	 	 876 	 	 10 	 	 1328 	 	 1499 	 	 55 
  38 	 	 234 	 	 556 	 	 10 	 	 881 	 	 946 	 	 88 
  39 	 	 190 	 	 853 	 	 10 	 	 1479 	 	 1541 	 	 62 
  40 	 	 84 	 	 646 	 	 9 	 	 488 	 	 589 	 	 95 
  41 	 	 104 	 	 583 	 	 5 	 	 594 	 	 720 	 	 92 
  42 	 	 346 	 	 691 	 	 5 	 	 1490 	 	 1633 	 	 51 
  43 	 	 183 	 	 19 	 	 5 	 	 997 	 	 1128 	 	 61 
  44 	 	 213 	 	 485 	 	 10 	 	 202 	 	 381 	 	 96 
  45 	 	 423 	 	 774 	 	 5 	 	 775 	 	 968 	 	 51 
  46 	 	 189 	 	 670 	 	 5 	 	 397 	 	 586 	 	 63 
  47 	 	 240 	 	 606 	 	 10 	 	 756 	 	 878 	 	 66 
  48 	 	 387 	 	 729 	 	 8 	 	 472 	 	 659 	 	 97 
  49 	 	 35 	 	 476 	 	 7 	 	 1871 	 	 2027 	 	 81 
  50 	 	 310 	 	 670 	 	 9 	 	 1596 	 	 1758 	 	 69 
  51 	 	 94 	 	 483 	 	 8 	 	 1938 	 	 2135 	 	 57 
  52 	 	 273 	 	 587 	 	 7 	 	 1528 	 	 1599 	 	 50 
  53 	 	 332 	 	 578 	 	 10 	 	 903 	 	 986 	 	 69 
  54 	 	 416 	 	 799 	 	 8 	 	 1336 	 	 1455 	 	 85 
  55 	 	 552 	 	 814 	 	 10 	 	 1773 	 	 1828 	 	 67 
  56 	 	 162 	 	 430 	 	 7 	 	 2410 	 	 2506 	 	 85 
  57 	 	 163 	 	 913 	 	 9 	 	 797 	 	 855 	 	 64 
  58 	 	 181 	 	 23 	 	 8 	 	 1891 	 	 2046 	 	 88 
  59 	 	 148 	 	 932 	 	 8 	 	 1886 	 	 2059 	 	 61 
  60 	 	 509 	 	 825 	 	 6 	 	 2213 	 	 2316 	 	 70 
  61 	 	 85 	 	 511 	 	 6 	 	 1471 	 	 1603 	 	 86 
  62 	 	 450 	 	 778 	 	 5 	 	 661 	 	 728 	 	 52 
  63 	 	 159 	 	 136 	 	 6 	 	 1920 	 	 2005 	 	 78 
  64 	 	 116 	 	 862 	 	 6 	 	 2354 	 	 2432 	 	 65 
  65 	 	 351 	 	 700 	 	 7 	 	 505 	 	 621 	 	 96 
  66 	 	 306 	 	 711 	 	 7 	 	 778 	 	 898 	 	 76 
  67 	 	 162 	 	 16 	 	 9 	 	 1301 	 	 1380 	 	 76 
  68 	 	 445 	 	 776 	 	 8 	 	 2501 	 	 2567 	 	 93 
  69 	 	 230 	 	 11 	 	 8 	 	 2102 	 	 2174 	 	 98 
  70 	 	 68 	 	 85 	 	 9 	 	 605 	 	 731 	 	 87 
  71 	 	 529 	 	 924 	 	 5 	 	 1961 	 	 2098 	 	 50 
  72 	 	 449 	 	 779 	 	 7 	 	 1879 	 	 2036 	 	 75 
  73 	 	 458 	 	 850 	 	 10 	 	 753 	 	 807 	 	 84 
  74 	 	 112 	 	 616 	 	 9 	 	 377 	 	 547 	 	 65 
  75 	 	 349 	 	 766 	 	 6 	 	 2311 	 	 2399 	 	 52 
  76 	 	 404 	 	 824 	 	 9 	 	 725 	 	 885 	 	 61 
  77 	 	 397 	 	 795 	 	 6 	 	 611 	 	 732 	 	 57 
  78 	 	 349 	 	 742 	 	 9 	 	 1918 	 	 2015 	 	 97 
  79 	 	 178 	 	 66 	 	 10 	 	 1740 	 	 1876 	 	 80 
  80 	 	 143 	 	 530 	 	 6 	 	 1917 	 	 2015 	 	 82 
  81 	 	 88 	 	 480 	 	 9 	 	 2472 	 	 2582 	 	 67 
  82 	 	 164 	 	 35 	 	 8 	 	 1003 	 	 1150 	 	 89 
  83 	 	 213 	 	 527 	 	 10 	 	 2176 	 	 2303 	 	 59 
  84 	 	 392 	 	 516 	 	 10 	 	 1180 	 	 1324 	 	 80 
  85 	 	 221 	 	 4 	 	 9 	 	 817 	 	 870 	 	 82 
  86 	 	 154 	 	 812 	 	 8 	 	 2027 	 	 2111 	 	 56 
  87 	 	 400 	 	 775 	 	 8 	 	 1626 	 	 1714 	 	 55 
  88 	 	 224 	 	 757 	 	 9 	 	 1670 	 	 1735 	 	 85 
  89 	 	 157 	 	 870 	 	 6 	 	 1115 	 	 1177 	 	 72 
  90 	 	 329 	 	 743 	 	 5 	 	 1459 	 	 1519 	 	 51 
  91 	 	 190 	 	 29 	 	 9 	 	 1561 	 	 1738 	 	 70 
  92 	 	 411 	 	 835 	 	 5 	 	 970 	 	 1091 	 	 56 
  93 	 	 593 	 	 846 	 	 10 	 	 758 	 	 854 	 	 83 
  94 	 	 105 	 	 491 	 	 5 	 	 962 	 	 1150 	 	 81 
  95 	 	 179 	 	 917 	 	 9 	 	 1221 	 	 1385 	 	 62 
  96 	 	 221 	 	 2 	 	 10 	 	 856 	 	 938 	 	 78 
  97 	 	 160 	 	 13 	 	 6 	 	 807 	 	 867 	 	 60 
  98 	 	 176 	 	 7 	 	 8 	 	 530 	 	 615 	 	 80 
  99 	 	 398 	 	 926 	 	 6 	 	 718 	 	 874 	 	 97 
  100 	 	 168 	 	 954 	 	 8 	 	 1022 	 	 1096 	 	 81 
 